(set-logic QF_BV)
(declare-fun x0 () (_ BitVec 32))
(declare-fun x1 () (_ BitVec 32))
(assert (let ( (?v_47 (bvsdiv (bvadd (_ bv0 32) (_ bv260000000 32)) x0))) (and true (bvult ?v_47 x1))))
(check-sat)
(exit)
